NAME : morphed18-5-12
COMMENT : Generated using the function morphInstances from the R-package netgen (Bossek,2015) - Number of clusters: 5 Alpha: 0.5
TYPE : TSP
DIMENSION : 18
EDGE_WEIGHT_TYPE : EUC_2D
NODE_COORD_SECTION
1 12.2143150626 74.2710380127
2 81.202532369 20.288617321
3 93.5549139872 31.6143481861
4 56.0229604164 65.696003085
5 28.2939400994 11.2856659144
6 5.608802016 76.4077229531
7 25.8239371455 21.2396815903
8 67.6015111606 26.543414027
9 42.1775155197 48.2321688187
10 18.3544482064 17.141446142
11 61.459793384 44.2353120849
12 86.4615620008 60.2033379624
13 55.085303851 21.78580823
14 47.6120716343 93.1591918309
15 21.5114838725 87.9333619796
16 46.2947094293 85.2291114558
17 66.3980349302 54.6916529645
18 58.5461305548 96.2138003813
EOF
